DATASET = "thpack2";
INSTANCE = "005";

WIDTH = 233;
HEIGHT = 220;
LENGTH = 587;

NO_OF_SHAPES = 5;
size = [|
  88,54,39 |
  94,54,36 |
  87,77,43 |
  100,80,72 |
  83,40,36 |
|];

verticality = [|
  0,1,1 |
  0,1,1 |
  0,1,1 |
  1,1,1 |
  0,1,1 |
|];

box_count = [
  25,
  27,
  21,
  20,
  24,
];
